c Result of efficient AIG-to-CNF conversion using package CNF
p cnf 636 2473
-2 3 449 451 453 0
-2 3 -449 -451 453 0
2 -453 0
2 -449 451 0
2 -3 0
2 449 -451 0
3 4 -300 0
3 -4 300 0
-3 -4 -300 0
-3 4 300 0
4 5 -51 0
4 -5 51 0
-4 -5 -51 0
-4 5 51 0
5 6 -37 0
5 -6 37 0
-5 -6 -37 0
-5 6 37 0
6 -573 -605 0
6 -605 -7 0
6 -573 -7 0
-6 573 7 0
-6 605 7 0
-6 573 605 0
7 -574 -606 0
7 -606 -8 0
7 -574 -8 0
-7 574 8 0
-7 606 8 0
-7 574 606 0
8 -575 -607 0
8 -607 -9 0
8 -575 -9 0
-8 575 9 0
-8 607 9 0
-8 575 607 0
9 -576 -608 0
9 -608 -10 0
9 -576 -10 0
-9 576 10 0
-9 608 10 0
-9 576 608 0
10 -577 -609 0
10 -609 -11 0
10 -577 -11 0
-10 577 11 0
-10 609 11 0
-10 577 609 0
11 -578 -610 0
11 -610 -12 0
11 -578 -12 0
-11 578 12 0
-11 610 12 0
-11 578 610 0
12 -579 -611 0
12 -611 -13 0
12 -579 -13 0
-12 579 13 0
-12 611 13 0
-12 579 611 0
13 -580 -612 0
13 -612 -14 0
13 -580 -14 0
-13 580 14 0
-13 612 14 0
-13 580 612 0
14 -581 -613 0
14 -613 -15 0
14 -581 -15 0
-14 581 15 0
-14 613 15 0
-14 581 613 0
15 -582 -614 0
15 -614 -16 0
15 -582 -16 0
-15 582 16 0
-15 614 16 0
-15 582 614 0
16 -583 -615 0
16 -615 -17 0
16 -583 -17 0
-16 583 17 0
-16 615 17 0
-16 583 615 0
17 -584 -616 0
17 -616 -18 0
17 -584 -18 0
-17 584 18 0
-17 616 18 0
-17 584 616 0
18 -585 -617 0
18 -617 -19 0
18 -585 -19 0
-18 585 19 0
-18 617 19 0
-18 585 617 0
19 -586 -618 0
19 -618 -20 0
19 -586 -20 0
-19 586 20 0
-19 618 20 0
-19 586 618 0
20 -587 -619 0
20 -619 -21 0
20 -587 -21 0
-20 587 21 0
-20 619 21 0
-20 587 619 0
21 -588 -620 0
21 -620 -22 0
21 -588 -22 0
-21 588 22 0
-21 620 22 0
-21 588 620 0
22 -589 -621 0
22 -621 -23 0
22 -589 -23 0
-22 589 23 0
-22 621 23 0
-22 589 621 0
23 -590 -622 0
23 -622 -24 0
23 -590 -24 0
-23 590 24 0
-23 622 24 0
-23 590 622 0
24 -591 -623 0
24 -623 -25 0
24 -591 -25 0
-24 591 25 0
-24 623 25 0
-24 591 623 0
25 -592 -624 0
25 -624 -26 0
25 -592 -26 0
-25 592 26 0
-25 624 26 0
-25 592 624 0
26 -593 -625 0
26 -625 -27 0
26 -593 -27 0
-26 593 27 0
-26 625 27 0
-26 593 625 0
27 -594 -626 0
27 -626 -28 0
27 -594 -28 0
-27 594 28 0
-27 626 28 0
-27 594 626 0
28 -595 -627 0
28 -627 -29 0
28 -595 -29 0
-28 595 29 0
-28 627 29 0
-28 595 627 0
29 -596 -628 0
29 -628 -30 0
29 -596 -30 0
-29 596 30 0
-29 628 30 0
-29 596 628 0
30 -597 -629 0
30 -629 -31 0
30 -597 -31 0
-30 597 31 0
-30 629 31 0
-30 597 629 0
31 -598 -630 0
31 -630 -32 0
31 -598 -32 0
-31 598 32 0
-31 630 32 0
-31 598 630 0
32 -599 -631 0
32 -631 -33 0
32 -599 -33 0
-32 599 33 0
-32 631 33 0
-32 599 631 0
33 -600 -632 0
33 -632 -34 0
33 -600 -34 0
-33 600 34 0
-33 632 34 0
-33 600 632 0
34 -601 -633 0
34 -633 -35 0
34 -601 -35 0
-34 601 35 0
-34 633 35 0
-34 601 633 0
35 -602 -634 0
35 -634 -36 0
35 -602 -36 0
-35 602 36 0
-35 634 36 0
-35 602 634 0
36 -603 -635 0
-36 603 0
-36 635 0
37 -604 38 0
37 604 -38 0
-37 604 38 0
-37 -604 -38 0
-38 572 -599 0
-38 572 39 0
-38 572 -47 0
38 -572 0
38 599 -39 47 0
39 -40 42 0
-39 40 0
-39 -42 0
40 600 -41 0
-40 -600 0
-40 41 0
41 601 602 603 -604 0
-41 604 0
-41 -603 0
-41 -601 0
-41 -602 0
-42 576 43 44 45 0
42 -576 0
42 -45 0
42 -44 0
42 -43 0
-43 580 583 587 0
43 -580 0
43 -587 0
43 -583 0
-44 574 575 585 586 0
44 -586 0
44 -585 0
44 -574 0
44 -575 0
-45 578 581 582 46 0
45 -46 0
45 -582 0
45 -578 0
45 -581 0
-46 573 577 579 0
46 -573 0
46 -579 0
46 -577 0
-47 584 588 48 49 0
47 -584 0
47 -49 0
47 -48 0
47 -588 0
-48 590 591 594 595 0
48 -595 0
48 -594 0
48 -590 0
48 -591 0
-49 589 593 596 50 0
49 -50 0
49 -596 0
49 -589 0
49 -593 0
-50 592 597 598 0
50 -592 0
50 -598 0
50 -597 0
51 -52 -60 0
51 -52 -58 0
51 -58 -60 0
-51 58 60 0
-51 52 60 0
-51 52 58 0
52 -53 56 0
-52 53 0
-52 -56 0
53 600 -54 0
-53 -600 0
-53 54 0
54 601 -55 0
-54 -601 0
-54 55 0
55 602 603 -605 0
55 602 -603 -604 0
-55 -602 0
-55 -603 604 0
-55 603 605 0
-56 599 57 0
56 -599 0
56 -57 0
-57 572 42 47 0
57 -47 0
57 -42 0
57 -572 0
-58 -7 -59 0
-58 7 59 0
58 7 -59 0
58 -7 59 0
59 573 -605 0
59 -573 605 0
-59 -573 -605 0
-59 573 605 0
60 -61 -68 0
60 -61 -66 0
60 -66 -68 0
-60 66 68 0
-60 61 68 0
-60 61 66 0
61 56 -62 0
-61 -56 0
-61 62 0
62 600 -63 0
-62 -600 0
-62 63 0
63 601 -64 0
-63 -601 0
-63 64 0
64 602 -65 0
64 -602 603 -604 0
-64 -602 -603 0
-64 602 65 0
-64 -602 604 0
65 -603 -605 0
65 603 -606 0
-65 603 606 0
-65 -603 605 0
-66 -8 -67 0
-66 8 67 0
66 8 -67 0
66 -8 67 0
67 574 -606 0
67 -574 606 0
-67 -574 -606 0
-67 574 606 0
68 -69 -77 0
68 -69 -75 0
68 -75 -77 0
-68 75 77 0
-68 69 77 0
-68 69 75 0
69 56 -70 0
-69 -56 0
-69 70 0
70 600 -71 0
-70 -600 0
-70 71 0
71 601 -72 0
-71 -601 0
-71 72 0
72 -602 -73 0
72 602 -74 0
-72 602 74 0
-72 -602 73 0
73 -603 -604 0
73 603 -605 0
-73 603 605 0
-73 -603 604 0
74 -603 -606 0
74 603 -607 0
-74 603 607 0
-74 -603 606 0
-75 -9 -76 0
-75 9 76 0
75 9 -76 0
75 -9 76 0
76 575 -607 0
76 -575 607 0
-76 -575 -607 0
-76 575 607 0
77 -78 -86 0
77 -78 -84 0
77 -84 -86 0
-77 84 86 0
-77 78 86 0
-77 78 84 0
78 56 -79 0
-78 -56 0
-78 79 0
79 600 -80 0
-79 -600 0
-79 80 0
80 -601 -81 0
80 601 -82 0
-80 601 82 0
-80 -601 81 0
81 602 603 -604 0
-81 604 0
-81 -603 0
-81 -602 0
82 -602 -65 0
82 602 -83 0
-82 602 83 0
-82 -602 65 0
83 -603 -607 0
83 603 -608 0
-83 603 608 0
-83 -603 607 0
-84 -10 -85 0
-84 10 85 0
84 10 -85 0
84 -10 85 0
85 576 -608 0
85 -576 608 0
-85 -576 -608 0
-85 576 608 0
86 -87 -94 0
86 -87 -92 0
86 -92 -94 0
-86 92 94 0
-86 87 94 0
-86 87 92 0
87 56 -88 0
-87 -56 0
-87 88 0
88 600 -89 0
-88 -600 0
-88 89 0
89 -601 -55 0
89 601 -90 0
-89 601 90 0
-89 -601 55 0
90 -602 -74 0
90 602 -91 0
-90 602 91 0
-90 -602 74 0
91 -603 -608 0
91 603 -609 0
-91 603 609 0
-91 -603 608 0
-92 -11 -93 0
-92 11 93 0
92 11 -93 0
92 -11 93 0
93 577 -609 0
93 -577 609 0
-93 -577 -609 0
-93 577 609 0
94 -95 -102 0
94 -95 -100 0
94 -100 -102 0
-94 100 102 0
-94 95 102 0
-94 95 100 0
95 56 -96 0
-95 -56 0
-95 96 0
96 600 -97 0
-96 -600 0
-96 97 0
97 -601 -64 0
97 601 -98 0
-97 601 98 0
-97 -601 64 0
98 -602 -83 0
98 602 -99 0
-98 602 99 0
-98 -602 83 0
99 -603 -609 0
99 603 -610 0
-99 603 610 0
-99 -603 609 0
-100 -12 -101 0
-100 12 101 0
100 12 -101 0
100 -12 101 0
101 578 -610 0
101 -578 610 0
-101 -578 -610 0
-101 578 610 0
102 -103 -110 0
102 -103 -108 0
102 -108 -110 0
-102 108 110 0
-102 103 110 0
-102 103 108 0
103 56 -104 0
-103 -56 0
-103 104 0
104 600 -105 0
-104 -600 0
-104 105 0
105 -601 -72 0
105 601 -106 0
-105 601 106 0
-105 -601 72 0
106 -602 -91 0
106 602 -107 0
-106 602 107 0
-106 -602 91 0
107 -603 -610 0
107 603 -611 0
-107 603 611 0
-107 -603 610 0
-108 -13 -109 0
-108 13 109 0
108 13 -109 0
108 -13 109 0
109 579 -611 0
109 -579 611 0
-109 -579 -611 0
-109 579 611 0
110 -111 -118 0
110 -111 -116 0
110 -116 -118 0
-110 116 118 0
-110 111 118 0
-110 111 116 0
111 56 -112 0
-111 -56 0
-111 112 0
112 -600 -41 0
112 600 -113 0
-112 600 113 0
-112 -600 41 0
113 -601 -82 0
113 601 -114 0
-113 601 114 0
-113 -601 82 0
114 -602 -99 0
114 602 -115 0
-114 602 115 0
-114 -602 99 0
115 -603 -611 0
115 603 -612 0
-115 603 612 0
-115 -603 611 0
-116 -14 -117 0
-116 14 117 0
116 14 -117 0
116 -14 117 0
117 580 -612 0
117 -580 612 0
-117 -580 -612 0
-117 580 612 0
118 -119 -126 0
118 -119 -124 0
118 -124 -126 0
-118 124 126 0
-118 119 126 0
-118 119 124 0
119 56 -120 0
-119 -56 0
-119 120 0
120 -600 -54 0
120 600 -121 0
-120 600 121 0
-120 -600 54 0
121 -601 -90 0
121 601 -122 0
-121 601 122 0
-121 -601 90 0
122 -602 -107 0
122 602 -123 0
-122 602 123 0
-122 -602 107 0
123 -603 -612 0
123 603 -613 0
-123 603 613 0
-123 -603 612 0
-124 -15 -125 0
-124 15 125 0
124 15 -125 0
124 -15 125 0
125 581 -613 0
125 -581 613 0
-125 -581 -613 0
-125 581 613 0
126 -127 -134 0
126 -127 -132 0
126 -132 -134 0
-126 132 134 0
-126 127 134 0
-126 127 132 0
127 56 -128 0
-127 -56 0
-127 128 0
128 -600 -63 0
128 600 -129 0
-128 600 129 0
-128 -600 63 0
129 -601 -98 0
129 601 -130 0
-129 601 130 0
-129 -601 98 0
130 -602 -115 0
130 602 -131 0
-130 602 131 0
-130 -602 115 0
131 -603 -613 0
131 603 -614 0
-131 603 614 0
-131 -603 613 0
-132 -16 -133 0
-132 16 133 0
132 16 -133 0
132 -16 133 0
133 582 -614 0
133 -582 614 0
-133 -582 -614 0
-133 582 614 0
134 -135 -142 0
134 -135 -140 0
134 -140 -142 0
-134 140 142 0
-134 135 142 0
-134 135 140 0
135 56 -136 0
-135 -56 0
-135 136 0
136 -600 -71 0
136 600 -137 0
-136 600 137 0
-136 -600 71 0
137 -601 -106 0
137 601 -138 0
-137 601 138 0
-137 -601 106 0
138 -602 -123 0
138 602 -139 0
-138 602 139 0
-138 -602 123 0
139 -603 -614 0
139 603 -615 0
-139 603 615 0
-139 -603 614 0
-140 -17 -141 0
-140 17 141 0
140 17 -141 0
140 -17 141 0
141 583 -615 0
141 -583 615 0
-141 -583 -615 0
-141 583 615 0
142 -143 -150 0
142 -143 -148 0
142 -148 -150 0
-142 148 150 0
-142 143 150 0
-142 143 148 0
143 56 -144 0
-143 -56 0
-143 144 0
144 -600 -80 0
144 600 -145 0
-144 600 145 0
-144 -600 80 0
145 -601 -114 0
145 601 -146 0
-145 601 146 0
-145 -601 114 0
146 -602 -131 0
146 602 -147 0
-146 602 147 0
-146 -602 131 0
147 -603 -615 0
147 603 -616 0
-147 603 616 0
-147 -603 615 0
-148 -18 -149 0
-148 18 149 0
148 18 -149 0
148 -18 149 0
149 584 -616 0
149 -584 616 0
-149 -584 -616 0
-149 584 616 0
150 -151 -158 0
150 -151 -156 0
150 -156 -158 0
-150 156 158 0
-150 151 158 0
-150 151 156 0
151 56 -152 0
-151 -56 0
-151 152 0
152 -600 -89 0
152 600 -153 0
-152 600 153 0
-152 -600 89 0
153 -601 -122 0
153 601 -154 0
-153 601 154 0
-153 -601 122 0
154 -602 -139 0
154 602 -155 0
-154 602 155 0
-154 -602 139 0
155 -603 -616 0
155 603 -617 0
-155 603 617 0
-155 -603 616 0
-156 -19 -157 0
-156 19 157 0
156 19 -157 0
156 -19 157 0
157 585 -617 0
157 -585 617 0
-157 -585 -617 0
-157 585 617 0
158 -159 -166 0
158 -159 -164 0
158 -164 -166 0
-158 164 166 0
-158 159 166 0
-158 159 164 0
159 56 -160 0
-159 -56 0
-159 160 0
160 -600 -97 0
160 600 -161 0
-160 600 161 0
-160 -600 97 0
161 -601 -130 0
161 601 -162 0
-161 601 162 0
-161 -601 130 0
162 -602 -147 0
162 602 -163 0
-162 602 163 0
-162 -602 147 0
163 -603 -617 0
163 603 -618 0
-163 603 618 0
-163 -603 617 0
-164 -20 -165 0
-164 20 165 0
164 20 -165 0
164 -20 165 0
165 586 -618 0
165 -586 618 0
-165 -586 -618 0
-165 586 618 0
166 -167 -174 0
166 -167 -172 0
166 -172 -174 0
-166 172 174 0
-166 167 174 0
-166 167 172 0
167 56 -168 0
-167 -56 0
-167 168 0
168 -600 -105 0
168 600 -169 0
-168 600 169 0
-168 -600 105 0
169 -601 -138 0
169 601 -170 0
-169 601 170 0
-169 -601 138 0
170 -602 -155 0
170 602 -171 0
-170 602 171 0
-170 -602 155 0
171 -603 -618 0
171 603 -619 0
-171 603 619 0
-171 -603 618 0
-172 -21 -173 0
-172 21 173 0
172 21 -173 0
172 -21 173 0
173 587 -619 0
173 -587 619 0
-173 -587 -619 0
-173 587 619 0
174 -175 -182 0
174 -175 -180 0
174 -180 -182 0
-174 180 182 0
-174 175 182 0
-174 175 180 0
175 599 57 -176 0
175 -599 -40 57 0
-175 -57 0
-175 -599 40 0
-175 599 176 0
176 -600 -113 0
176 600 -177 0
-176 600 177 0
-176 -600 113 0
177 -601 -146 0
177 601 -178 0
-177 601 178 0
-177 -601 146 0
178 -602 -163 0
178 602 -179 0
-178 602 179 0
-178 -602 163 0
179 -603 -619 0
179 603 -620 0
-179 603 620 0
-179 -603 619 0
-180 -22 -181 0
-180 22 181 0
180 22 -181 0
180 -22 181 0
181 588 -620 0
181 -588 620 0
-181 -588 -620 0
-181 588 620 0
182 -183 -190 0
182 -183 -188 0
182 -188 -190 0
-182 188 190 0
-182 183 190 0
-182 183 188 0
183 599 57 -184 0
183 -599 -53 57 0
-183 -57 0
-183 -599 53 0
-183 599 184 0
184 -600 -121 0
184 600 -185 0
-184 600 185 0
-184 -600 121 0
185 -601 -154 0
185 601 -186 0
-185 601 186 0
-185 -601 154 0
186 -602 -171 0
186 602 -187 0
-186 602 187 0
-186 -602 171 0
187 -603 -620 0
187 603 -621 0
-187 603 621 0
-187 -603 620 0
-188 -23 -189 0
-188 23 189 0
188 23 -189 0
188 -23 189 0
189 589 -621 0
189 -589 621 0
-189 -589 -621 0
-189 589 621 0
190 -191 -198 0
190 -191 -196 0
190 -196 -198 0
-190 196 198 0
-190 191 198 0
-190 191 196 0
191 599 57 -192 0
191 -599 57 -62 0
-191 -57 0
-191 -599 62 0
-191 599 192 0
192 -600 -129 0
192 600 -193 0
-192 600 193 0
-192 -600 129 0
193 -601 -162 0
193 601 -194 0
-193 601 194 0
-193 -601 162 0
194 -602 -179 0
194 602 -195 0
-194 602 195 0
-194 -602 179 0
195 -603 -621 0
195 603 -622 0
-195 603 622 0
-195 -603 621 0
-196 -24 -197 0
-196 24 197 0
196 24 -197 0
196 -24 197 0
197 590 -622 0
197 -590 622 0
-197 -590 -622 0
-197 590 622 0
198 -199 -206 0
198 -199 -204 0
198 -204 -206 0
-198 204 206 0
-198 199 206 0
-198 199 204 0
199 599 57 -200 0
199 -599 57 -70 0
-199 -57 0
-199 -599 70 0
-199 599 200 0
200 -600 -137 0
200 600 -201 0
-200 600 201 0
-200 -600 137 0
201 -601 -170 0
201 601 -202 0
-201 601 202 0
-201 -601 170 0
202 -602 -187 0
202 602 -203 0
-202 602 203 0
-202 -602 187 0
203 -603 -622 0
203 603 -623 0
-203 603 623 0
-203 -603 622 0
-204 -25 -205 0
-204 25 205 0
204 25 -205 0
204 -25 205 0
205 591 -623 0
205 -591 623 0
-205 -591 -623 0
-205 591 623 0
206 -207 -214 0
206 -207 -212 0
206 -212 -214 0
-206 212 214 0
-206 207 214 0
-206 207 212 0
207 599 57 -208 0
207 -599 57 -79 0
-207 -57 0
-207 -599 79 0
-207 599 208 0
208 -600 -145 0
208 600 -209 0
-208 600 209 0
-208 -600 145 0
209 -601 -178 0
209 601 -210 0
-209 601 210 0
-209 -601 178 0
210 -602 -195 0
210 602 -211 0
-210 602 211 0
-210 -602 195 0
211 -603 -623 0
211 603 -624 0
-211 603 624 0
-211 -603 623 0
-212 -26 -213 0
-212 26 213 0
212 26 -213 0
212 -26 213 0
213 592 -624 0
213 -592 624 0
-213 -592 -624 0
-213 592 624 0
214 -215 -222 0
214 -215 -220 0
214 -220 -222 0
-214 220 222 0
-214 215 222 0
-214 215 220 0
215 599 57 -216 0
215 -599 57 -88 0
-215 -57 0
-215 -599 88 0
-215 599 216 0
216 -600 -153 0
216 600 -217 0
-216 600 217 0
-216 -600 153 0
217 -601 -186 0
217 601 -218 0
-217 601 218 0
-217 -601 186 0
218 -602 -203 0
218 602 -219 0
-218 602 219 0
-218 -602 203 0
219 -603 -624 0
219 603 -625 0
-219 603 625 0
-219 -603 624 0
-220 -27 -221 0
-220 27 221 0
220 27 -221 0
220 -27 221 0
221 593 -625 0
221 -593 625 0
-221 -593 -625 0
-221 593 625 0
222 -223 -230 0
222 -223 -228 0
222 -228 -230 0
-222 228 230 0
-222 223 230 0
-222 223 228 0
223 599 57 -224 0
223 -599 57 -96 0
-223 -57 0
-223 -599 96 0
-223 599 224 0
224 -600 -161 0
224 600 -225 0
-224 600 225 0
-224 -600 161 0
225 -601 -194 0
225 601 -226 0
-225 601 226 0
-225 -601 194 0
226 -602 -211 0
226 602 -227 0
-226 602 227 0
-226 -602 211 0
227 -603 -625 0
227 603 -626 0
-227 603 626 0
-227 -603 625 0
-228 -28 -229 0
-228 28 229 0
228 28 -229 0
228 -28 229 0
229 594 -626 0
229 -594 626 0
-229 -594 -626 0
-229 594 626 0
230 -231 -238 0
230 -231 -236 0
230 -236 -238 0
-230 236 238 0
-230 231 238 0
-230 231 236 0
231 599 57 -232 0
231 -599 57 -104 0
-231 -57 0
-231 -599 104 0
-231 599 232 0
232 -600 -169 0
232 600 -233 0
-232 600 233 0
-232 -600 169 0
233 -601 -202 0
233 601 -234 0
-233 601 234 0
-233 -601 202 0
234 -602 -219 0
234 602 -235 0
-234 602 235 0
-234 -602 219 0
235 -603 -626 0
235 603 -627 0
-235 603 627 0
-235 -603 626 0
-236 -29 -237 0
-236 29 237 0
236 29 -237 0
236 -29 237 0
237 595 -627 0
237 -595 627 0
-237 -595 -627 0
-237 595 627 0
238 -239 -246 0
238 -239 -244 0
238 -244 -246 0
-238 244 246 0
-238 239 246 0
-238 239 244 0
239 599 57 -240 0
239 -599 57 -112 0
-239 -57 0
-239 599 240 0
-239 -599 112 0
-240 -600 177 0
-240 600 241 0
240 -600 -177 0
240 600 -241 0
-241 601 242 0
-241 -601 210 0
241 -601 -210 0
241 601 -242 0
242 -602 -227 0
242 602 -243 0
-242 602 243 0
-242 -602 227 0
243 -603 -627 0
243 603 -628 0
-243 603 628 0
-243 -603 627 0
-244 -30 -245 0
-244 30 245 0
244 30 -245 0
244 -30 245 0
245 596 -628 0
245 -596 628 0
-245 -596 -628 0
-245 596 628 0
246 -247 -254 0
246 -247 -252 0
246 -252 -254 0
-246 252 254 0
-246 247 254 0
-246 247 252 0
247 599 57 -248 0
247 -599 57 -120 0
-247 -57 0
-247 599 248 0
-247 -599 120 0
-248 -600 185 0
-248 600 249 0
248 -600 -185 0
248 600 -249 0
-249 601 250 0
-249 -601 218 0
249 -601 -218 0
249 601 -250 0
250 -602 -235 0
250 602 -251 0
-250 602 251 0
-250 -602 235 0
251 -603 -628 0
251 603 -629 0
-251 603 629 0
-251 -603 628 0
-252 -31 -253 0
-252 31 253 0
252 31 -253 0
252 -31 253 0
253 597 -629 0
253 -597 629 0
-253 -597 -629 0
-253 597 629 0
254 -255 -260 0
254 -260 -262 0
254 -255 -262 0
-254 255 262 0
-254 260 262 0
-254 255 260 0
255 599 57 -256 0
255 -599 57 -128 0
-255 -57 0
-255 599 256 0
-255 -599 128 0
-256 -600 193 0
-256 600 257 0
256 -600 -193 0
256 600 -257 0
-257 601 258 0
-257 -601 226 0
257 -601 -226 0
257 601 -258 0
258 -602 -243 0
258 602 -259 0
-258 602 259 0
-258 -602 243 0
259 -603 -629 0
259 603 -630 0
-259 603 630 0
-259 -603 629 0
260 32 -261 0
260 -32 261 0
-260 -32 -261 0
-260 32 261 0
261 598 -630 0
261 -598 630 0
-261 -598 -630 0
-261 598 630 0
262 -263 -268 0
262 -268 -270 0
262 -263 -270 0
-262 263 270 0
-262 268 270 0
-262 263 268 0
263 599 57 -264 0
263 -599 57 -136 0
-263 -57 0
-263 599 264 0
-263 -599 136 0
-264 -600 201 0
-264 600 265 0
264 -600 -201 0
264 600 -265 0
-265 601 266 0
-265 -601 234 0
265 -601 -234 0
265 601 -266 0
266 -602 -251 0
266 602 -267 0
-266 602 267 0
-266 -602 251 0
267 -603 -630 0
267 603 -631 0
-267 603 631 0
-267 -603 630 0
268 33 -269 0
268 -33 269 0
-268 -33 -269 0
-268 33 269 0
269 599 -631 0
269 -599 631 0
-269 -599 -631 0
-269 599 631 0
270 -271 -276 0
270 -276 -278 0
270 -271 -278 0
-270 271 278 0
-270 276 278 0
-270 271 276 0
271 599 57 -272 0
271 -599 57 -144 0
-271 -57 0
-271 599 272 0
-271 -599 144 0
-272 -600 209 0
-272 600 273 0
272 -600 -209 0
272 600 -273 0
-273 -601 242 0
-273 601 274 0
273 -601 -242 0
273 601 -274 0
-274 602 275 0
-274 -602 259 0
274 -602 -259 0
274 602 -275 0
275 -603 -631 0
275 603 -632 0
-275 603 632 0
-275 -603 631 0
276 34 -277 0
276 -34 277 0
-276 -34 -277 0
-276 34 277 0
277 600 -632 0
277 -600 632 0
-277 -600 -632 0
-277 600 632 0
278 -279 -284 0
278 -284 -286 0
278 -279 -286 0
-278 279 286 0
-278 284 286 0
-278 279 284 0
279 599 57 -280 0
279 -599 57 -152 0
-279 -57 0
-279 599 280 0
-279 -599 152 0
-280 -600 217 0
-280 600 281 0
280 -600 -217 0
280 600 -281 0
-281 -601 250 0
-281 601 282 0
281 -601 -250 0
281 601 -282 0
-282 602 283 0
-282 -602 267 0
282 -602 -267 0
282 602 -283 0
283 -603 -632 0
283 603 -633 0
-283 603 633 0
-283 -603 632 0
284 35 -285 0
284 -35 285 0
-284 -35 -285 0
-284 35 285 0
285 601 -633 0
285 -601 633 0
-285 -601 -633 0
-285 601 633 0
286 -287 -292 0
286 -292 -294 0
286 -287 -294 0
-286 287 294 0
-286 292 294 0
-286 287 292 0
287 599 57 -288 0
287 -599 57 -160 0
-287 -57 0
-287 599 288 0
-287 -599 160 0
-288 -600 225 0
-288 600 289 0
288 -600 -225 0
288 600 -289 0
-289 -601 258 0
-289 601 290 0
289 -601 -258 0
289 601 -290 0
-290 602 291 0
-290 -602 275 0
290 -602 -275 0
290 602 -291 0
291 -603 -633 0
291 603 -634 0
-291 603 634 0
-291 -603 633 0
292 36 -293 0
292 -36 293 0
-292 -36 -293 0
-292 36 293 0
293 602 -634 0
293 -602 634 0
-293 -602 -634 0
-293 602 634 0
294 603 -635 -295 0
294 -603 635 -295 0
-294 295 0
-294 603 635 0
-294 -603 -635 0
295 599 57 -296 0
295 -599 57 -168 0
-295 -57 0
-295 599 296 0
-295 -599 168 0
-296 -600 233 0
-296 600 297 0
296 -600 -233 0
296 600 -297 0
-297 -601 266 0
-297 601 298 0
297 -601 -266 0
297 601 -298 0
-298 602 299 0
-298 -602 283 0
298 -602 -283 0
298 602 -299 0
299 -603 -634 0
299 603 -635 0
-299 603 635 0
-299 -603 634 0
300 301 -333 0
300 -301 333 0
-300 -301 -333 0
-300 301 333 0
301 37 -302 0
301 -37 302 0
-301 -37 -302 0
-301 37 302 0
302 -605 -52 0
302 -52 -303 0
302 -605 -303 0
-302 605 303 0
-302 52 303 0
-302 605 52 0
303 -606 -61 0
303 -61 -304 0
303 -606 -304 0
-303 606 304 0
-303 61 304 0
-303 606 61 0
304 -607 -69 0
304 -69 -305 0
304 -607 -305 0
-304 607 305 0
-304 69 305 0
-304 607 69 0
305 -608 -78 0
305 -78 -306 0
305 -608 -306 0
-305 608 306 0
-305 78 306 0
-305 608 78 0
306 -609 -87 0
306 -87 -307 0
306 -609 -307 0
-306 609 307 0
-306 87 307 0
-306 609 87 0
307 -610 -95 0
307 -95 -308 0
307 -610 -308 0
-307 610 308 0
-307 95 308 0
-307 610 95 0
308 -611 -103 0
308 -103 -309 0
308 -611 -309 0
-308 611 309 0
-308 103 309 0
-308 611 103 0
309 -612 -111 0
309 -111 -310 0
309 -612 -310 0
-309 612 310 0
-309 111 310 0
-309 612 111 0
310 -613 -119 0
310 -119 -311 0
310 -613 -311 0
-310 613 311 0
-310 119 311 0
-310 613 119 0
311 -614 -127 0
311 -127 -312 0
311 -614 -312 0
-311 614 312 0
-311 127 312 0
-311 614 127 0
312 -615 -135 0
312 -135 -313 0
312 -615 -313 0
-312 615 313 0
-312 135 313 0
-312 615 135 0
313 -616 -143 0
313 -143 -314 0
313 -616 -314 0
-313 616 314 0
-313 143 314 0
-313 616 143 0
314 -617 -151 0
314 -151 -315 0
314 -617 -315 0
-314 617 315 0
-314 151 315 0
-314 617 151 0
315 -618 -159 0
315 -159 -316 0
315 -618 -316 0
-315 618 316 0
-315 159 316 0
-315 618 159 0
316 -619 -167 0
316 -167 -317 0
316 -619 -317 0
-316 619 317 0
-316 167 317 0
-316 619 167 0
317 -620 -175 0
317 -175 -318 0
317 -620 -318 0
-317 620 318 0
-317 175 318 0
-317 620 175 0
318 -621 -183 0
318 -183 -319 0
318 -621 -319 0
-318 621 319 0
-318 183 319 0
-318 621 183 0
319 -622 -191 0
319 -191 -320 0
319 -622 -320 0
-319 622 320 0
-319 191 320 0
-319 622 191 0
320 -623 -199 0
320 -199 -321 0
320 -623 -321 0
-320 623 321 0
-320 199 321 0
-320 623 199 0
321 -624 -207 0
321 -207 -322 0
321 -624 -322 0
-321 624 322 0
-321 207 322 0
-321 624 207 0
322 -625 -215 0
322 -215 -323 0
322 -625 -323 0
-322 625 323 0
-322 215 323 0
-322 625 215 0
323 -626 -223 0
323 -223 -324 0
323 -626 -324 0
-323 626 324 0
-323 223 324 0
-323 626 223 0
324 -627 -231 0
324 -231 -325 0
324 -627 -325 0
-324 627 325 0
-324 231 325 0
-324 627 231 0
325 -628 -239 0
325 -239 -326 0
325 -628 -326 0
-325 628 326 0
-325 239 326 0
-325 628 239 0
326 -629 -247 0
326 -247 -327 0
326 -629 -327 0
-326 629 327 0
-326 247 327 0
-326 629 247 0
327 -630 -255 0
327 -255 -328 0
327 -630 -328 0
-327 630 328 0
-327 255 328 0
-327 630 255 0
328 -631 -263 0
328 -263 -329 0
328 -631 -329 0
-328 631 329 0
-328 263 329 0
-328 631 263 0
329 -632 -271 0
329 -271 -330 0
329 -632 -330 0
-329 632 330 0
-329 271 330 0
-329 632 271 0
330 -633 -279 0
330 -279 -331 0
330 -633 -331 0
-330 633 331 0
-330 279 331 0
-330 633 279 0
331 -634 -287 0
331 -287 -332 0
331 -634 -332 0
-331 634 332 0
-331 287 332 0
-331 634 287 0
332 -635 -295 0
-332 635 0
-332 295 0
333 -334 -335 0
333 -335 -337 0
-333 335 0
-333 334 337 0
334 -573 -605 0
-334 573 0
-334 605 0
-335 573 -303 -336 0
-335 573 303 336 0
335 -573 0
335 -303 336 0
335 303 -336 0
336 605 -52 0
336 -605 52 0
-336 -605 -52 0
-336 605 52 0
337 -338 -339 0
337 -339 -341 0
-337 339 0
-337 338 341 0
338 -574 -606 0
-338 574 0
-338 606 0
-339 574 -304 -340 0
-339 574 304 340 0
339 -574 0
339 -304 340 0
339 304 -340 0
340 606 -61 0
340 -606 61 0
-340 -606 -61 0
-340 606 61 0
341 -342 -343 0
341 -343 -345 0
-341 343 0
-341 342 345 0
342 -575 -607 0
-342 575 0
-342 607 0
-343 575 -305 -344 0
-343 575 305 344 0
343 -575 0
343 -305 344 0
343 305 -344 0
344 607 -69 0
344 -607 69 0
-344 -607 -69 0
-344 607 69 0
345 -346 -347 0
345 -347 -349 0
-345 347 0
-345 346 349 0
346 -576 -608 0
-346 576 0
-346 608 0
-347 576 -306 -348 0
-347 576 306 348 0
347 -576 0
347 -306 348 0
347 306 -348 0
348 608 -78 0
348 -608 78 0
-348 -608 -78 0
-348 608 78 0
349 -350 -351 0
349 -351 -353 0
-349 351 0
-349 350 353 0
350 -577 -609 0
-350 577 0
-350 609 0
-351 577 -307 -352 0
-351 577 307 352 0
351 -577 0
351 -307 352 0
351 307 -352 0
352 609 -87 0
352 -609 87 0
-352 -609 -87 0
-352 609 87 0
353 -354 -355 0
353 -355 -357 0
-353 355 0
-353 354 357 0
354 -578 -610 0
-354 578 0
-354 610 0
-355 578 -308 -356 0
-355 578 308 356 0
355 -578 0
355 -308 356 0
355 308 -356 0
356 610 -95 0
356 -610 95 0
-356 -610 -95 0
-356 610 95 0
357 -358 -359 0
357 -359 -361 0
-357 359 0
-357 358 361 0
358 -579 -611 0
-358 579 0
-358 611 0
-359 579 -309 -360 0
-359 579 309 360 0
359 -579 0
359 -309 360 0
359 309 -360 0
360 611 -103 0
360 -611 103 0
-360 -611 -103 0
-360 611 103 0
361 -362 -363 0
361 -363 -365 0
-361 363 0
-361 362 365 0
362 -580 -612 0
-362 580 0
-362 612 0
-363 580 -310 -364 0
-363 580 310 364 0
363 -580 0
363 -310 364 0
363 310 -364 0
364 612 -111 0
364 -612 111 0
-364 -612 -111 0
-364 612 111 0
365 -366 -367 0
365 -367 -369 0
-365 367 0
-365 366 369 0
366 -581 -613 0
-366 581 0
-366 613 0
-367 581 -311 -368 0
-367 581 311 368 0
367 -581 0
367 -311 368 0
367 311 -368 0
368 613 -119 0
368 -613 119 0
-368 -613 -119 0
-368 613 119 0
369 -370 -371 0
369 -371 -373 0
-369 371 0
-369 370 373 0
370 -582 -614 0
-370 582 0
-370 614 0
-371 582 -312 -372 0
-371 582 312 372 0
371 -582 0
371 -312 372 0
371 312 -372 0
372 614 -127 0
372 -614 127 0
-372 -614 -127 0
-372 614 127 0
373 -374 -375 0
373 -375 -377 0
-373 375 0
-373 374 377 0
374 -583 -615 0
-374 583 0
-374 615 0
-375 583 -313 -376 0
-375 583 313 376 0
375 -583 0
375 -313 376 0
375 313 -376 0
376 615 -135 0
376 -615 135 0
-376 -615 -135 0
-376 615 135 0
377 -378 -379 0
377 -379 -381 0
-377 379 0
-377 378 381 0
378 -584 -616 0
-378 584 0
-378 616 0
-379 584 -314 -380 0
-379 584 314 380 0
379 -584 0
379 -314 380 0
379 314 -380 0
380 616 -143 0
380 -616 143 0
-380 -616 -143 0
-380 616 143 0
381 -382 -383 0
381 -383 -385 0
-381 383 0
-381 382 385 0
382 -585 -617 0
-382 585 0
-382 617 0
-383 585 -315 -384 0
-383 585 315 384 0
383 -585 0
383 -315 384 0
383 315 -384 0
384 617 -151 0
384 -617 151 0
-384 -617 -151 0
-384 617 151 0
385 -386 -387 0
385 -387 -389 0
-385 387 0
-385 386 389 0
386 -586 -618 0
-386 586 0
-386 618 0
-387 586 -316 -388 0
-387 586 316 388 0
387 -586 0
387 -316 388 0
387 316 -388 0
388 618 -159 0
388 -618 159 0
-388 -618 -159 0
-388 618 159 0
389 -390 -391 0
389 -391 -393 0
-389 391 0
-389 390 393 0
390 -587 -619 0
-390 587 0
-390 619 0
-391 587 -317 -392 0
-391 587 317 392 0
391 -587 0
391 -317 392 0
391 317 -392 0
392 619 -167 0
392 -619 167 0
-392 -619 -167 0
-392 619 167 0
393 -394 -395 0
393 -395 -397 0
-393 395 0
-393 394 397 0
394 -588 -620 0
-394 588 0
-394 620 0
-395 588 -318 -396 0
-395 588 318 396 0
395 -588 0
395 -318 396 0
395 318 -396 0
396 620 -175 0
396 -620 175 0
-396 -620 -175 0
-396 620 175 0
397 -398 -399 0
397 -399 -401 0
-397 399 0
-397 398 401 0
398 -589 -621 0
-398 589 0
-398 621 0
-399 589 -319 -400 0
-399 589 319 400 0
399 -589 0
399 -319 400 0
399 319 -400 0
400 621 -183 0
400 -621 183 0
-400 -621 -183 0
-400 621 183 0
401 -402 -403 0
401 -403 -405 0
-401 403 0
-401 402 405 0
402 -590 -622 0
-402 590 0
-402 622 0
-403 590 -320 -404 0
-403 590 320 404 0
403 -590 0
403 -320 404 0
403 320 -404 0
404 622 -191 0
404 -622 191 0
-404 -622 -191 0
-404 622 191 0
405 -406 -407 0
405 -407 -409 0
-405 407 0
-405 406 409 0
406 -591 -623 0
-406 591 0
-406 623 0
-407 591 -321 -408 0
-407 591 321 408 0
407 -591 0
407 -321 408 0
407 321 -408 0
408 623 -199 0
408 -623 199 0
-408 -623 -199 0
-408 623 199 0
409 -410 -411 0
409 -411 -413 0
-409 411 0
-409 410 413 0
410 -592 -624 0
-410 592 0
-410 624 0
-411 592 -322 -412 0
-411 592 322 412 0
411 -592 0
411 -322 412 0
411 322 -412 0
412 624 -207 0
412 -624 207 0
-412 -624 -207 0
-412 624 207 0
413 -414 -415 0
413 -415 -417 0
-413 415 0
-413 414 417 0
414 -593 -625 0
-414 593 0
-414 625 0
-415 593 -323 -416 0
-415 593 323 416 0
415 -593 0
415 -323 416 0
415 323 -416 0
416 625 -215 0
416 -625 215 0
-416 -625 -215 0
-416 625 215 0
417 -418 -419 0
417 -419 -421 0
-417 419 0
-417 418 421 0
418 -594 -626 0
-418 594 0
-418 626 0
-419 594 -324 -420 0
-419 594 324 420 0
419 -594 0
419 -324 420 0
419 324 -420 0
420 626 -223 0
420 -626 223 0
-420 -626 -223 0
-420 626 223 0
421 -422 -423 0
421 -423 -425 0
-421 423 0
-421 422 425 0
422 -595 -627 0
-422 595 0
-422 627 0
-423 595 -325 -424 0
-423 595 325 424 0
423 -595 0
423 -325 424 0
423 325 -424 0
424 627 -231 0
424 -627 231 0
-424 -627 -231 0
-424 627 231 0
425 -426 -427 0
425 -427 -429 0
-425 427 0
-425 426 429 0
426 -596 -628 0
-426 596 0
-426 628 0
-427 596 -326 -428 0
-427 596 326 428 0
427 -596 0
427 -326 428 0
427 326 -428 0
428 628 -239 0
428 -628 239 0
-428 -628 -239 0
-428 628 239 0
429 -430 -431 0
429 -431 -433 0
-429 431 0
-429 430 433 0
430 -597 -629 0
-430 597 0
-430 629 0
-431 597 -327 -432 0
-431 597 327 432 0
431 -597 0
431 -327 432 0
431 327 -432 0
432 629 -247 0
432 -629 247 0
-432 -629 -247 0
-432 629 247 0
433 -598 -435 0
433 328 -434 -435 0
433 -328 434 -435 0
-433 435 0
-433 598 -328 -434 0
-433 598 328 434 0
434 630 -255 0
434 -630 255 0
-434 -630 -255 0
-434 630 255 0
-435 599 436 439 0
-435 436 437 439 0
-435 599 436 437 0
435 -599 -437 0
435 -437 -439 0
435 -436 0
435 -599 -439 0
436 -598 -630 0
-436 598 0
-436 630 0
437 329 -438 0
437 -329 438 0
-437 -329 -438 0
-437 329 438 0
438 631 -263 0
438 -631 263 0
-438 -631 -263 0
-438 631 263 0
439 -600 -440 0
439 -440 -442 0
439 -600 -442 0
-439 600 442 0
-439 440 442 0
-439 600 440 0
440 330 -441 0
440 -330 441 0
-440 -330 -441 0
-440 330 441 0
441 632 -271 0
441 -632 271 0
-441 -632 -271 0
-441 632 271 0
442 -601 -443 0
442 -443 -445 0
442 -601 -445 0
-442 601 445 0
-442 443 445 0
-442 601 443 0
443 331 -444 0
443 -331 444 0
-443 -331 -444 0
-443 331 444 0
444 633 -279 0
444 -633 279 0
-444 -633 -279 0
-444 633 279 0
445 -602 -446 0
445 -446 -448 0
445 -602 -448 0
-445 602 448 0
-445 446 448 0
-445 602 446 0
446 332 -447 0
446 -332 447 0
-446 -332 -447 0
-446 332 447 0
447 634 -287 0
447 -634 287 0
-447 -634 -287 0
-447 634 287 0
448 -603 635 -295 0
448 -603 -635 295 0
-448 603 0
-448 -635 -295 0
-448 635 295 0
449 60 -450 0
449 -60 450 0
-449 -60 -450 0
-449 60 450 0
450 -52 58 0
450 52 -58 0
-450 52 58 0
-450 -52 -58 0
451 337 -452 0
451 -337 452 0
-451 -337 -452 0
-451 337 452 0
452 334 -335 0
-452 -334 0
-452 335 0
-453 454 459 461 463 0
-453 454 -459 -461 463 0
453 -463 0
453 -459 461 0
453 -454 0
453 459 -461 0
454 455 -457 0
454 -455 457 0
-454 -455 -457 0
-454 455 457 0
455 68 -456 0
455 -68 456 0
-455 -68 -456 0
-455 68 456 0
456 -61 66 0
456 61 -66 0
-456 61 66 0
-456 -61 -66 0
457 341 -458 0
457 -341 458 0
-457 -341 -458 0
-457 341 458 0
458 338 -339 0
-458 -338 0
-458 339 0
459 77 -460 0
459 -77 460 0
-459 -77 -460 0
-459 77 460 0
460 -69 75 0
460 69 -75 0
-460 69 75 0
-460 -69 -75 0
461 345 -462 0
461 -345 462 0
-461 -345 -462 0
-461 345 462 0
462 342 -343 0
-462 -342 0
-462 343 0
-463 464 469 471 473 0
-463 464 -469 -471 473 0
463 -473 0
463 -469 471 0
463 -464 0
463 469 -471 0
464 465 -467 0
464 -465 467 0
-464 -465 -467 0
-464 465 467 0
465 86 -466 0
465 -86 466 0
-465 -86 -466 0
-465 86 466 0
466 -78 84 0
466 78 -84 0
-466 78 84 0
-466 -78 -84 0
467 349 -468 0
467 -349 468 0
-467 -349 -468 0
-467 349 468 0
468 346 -347 0
-468 -346 0
-468 347 0
469 94 -470 0
469 -94 470 0
-469 -94 -470 0
-469 94 470 0
470 -87 92 0
470 87 -92 0
-470 87 92 0
-470 -87 -92 0
471 353 -472 0
471 -353 472 0
-471 -353 -472 0
-471 353 472 0
472 350 -351 0
-472 -350 0
-472 351 0
-473 474 479 481 483 0
-473 474 -479 -481 483 0
473 -483 0
473 -479 481 0
473 -474 0
473 479 -481 0
474 475 -477 0
474 -475 477 0
-474 -475 -477 0
-474 475 477 0
475 102 -476 0
475 -102 476 0
-475 -102 -476 0
-475 102 476 0
476 -95 100 0
476 95 -100 0
-476 95 100 0
-476 -95 -100 0
477 357 -478 0
477 -357 478 0
-477 -357 -478 0
-477 357 478 0
478 354 -355 0
-478 -354 0
-478 355 0
479 110 -480 0
479 -110 480 0
-479 -110 -480 0
-479 110 480 0
480 -103 108 0
480 103 -108 0
-480 103 108 0
-480 -103 -108 0
481 361 -482 0
481 -361 482 0
-481 -361 -482 0
-481 361 482 0
482 358 -359 0
-482 -358 0
-482 359 0
-483 484 489 491 493 0
-483 484 -489 -491 493 0
483 -493 0
483 -489 491 0
483 -484 0
483 489 -491 0
484 485 -487 0
484 -485 487 0
-484 -485 -487 0
-484 485 487 0
485 118 -486 0
485 -118 486 0
-485 -118 -486 0
-485 118 486 0
486 -111 116 0
486 111 -116 0
-486 111 116 0
-486 -111 -116 0
487 365 -488 0
487 -365 488 0
-487 -365 -488 0
-487 365 488 0
488 362 -363 0
-488 -362 0
-488 363 0
489 126 -490 0
489 -126 490 0
-489 -126 -490 0
-489 126 490 0
490 -119 124 0
490 119 -124 0
-490 119 124 0
-490 -119 -124 0
491 369 -492 0
491 -369 492 0
-491 -369 -492 0
-491 369 492 0
492 366 -367 0
-492 -366 0
-492 367 0
-493 494 499 501 503 0
-493 494 -499 -501 503 0
493 -503 0
493 -499 501 0
493 -494 0
493 499 -501 0
494 495 -497 0
494 -495 497 0
-494 -495 -497 0
-494 495 497 0
495 134 -496 0
495 -134 496 0
-495 -134 -496 0
-495 134 496 0
496 -127 132 0
496 127 -132 0
-496 127 132 0
-496 -127 -132 0
497 373 -498 0
497 -373 498 0
-497 -373 -498 0
-497 373 498 0
498 370 -371 0
-498 -370 0
-498 371 0
499 142 -500 0
499 -142 500 0
-499 -142 -500 0
-499 142 500 0
500 -135 140 0
500 135 -140 0
-500 135 140 0
-500 -135 -140 0
501 377 -502 0
501 -377 502 0
-501 -377 -502 0
-501 377 502 0
502 374 -375 0
-502 -374 0
-502 375 0
-503 504 506 508 513 0
-503 -504 -506 508 513 0
503 -508 0
503 504 -506 0
503 -513 0
503 -504 506 0
504 150 -505 0
504 -150 505 0
-504 -150 -505 0
-504 150 505 0
505 -143 148 0
505 143 -148 0
-505 143 148 0
-505 -143 -148 0
506 381 -507 0
506 -381 507 0
-506 -381 -507 0
-506 381 507 0
507 378 -379 0
-507 -378 0
-507 379 0
508 509 -511 0
508 -509 511 0
-508 -509 -511 0
-508 509 511 0
509 158 -510 0
509 -158 510 0
-509 -158 -510 0
-509 158 510 0
510 -151 156 0
510 151 -156 0
-510 151 156 0
-510 -151 -156 0
511 385 -512 0
511 -385 512 0
-511 -385 -512 0
-511 385 512 0
512 382 -383 0
-512 -382 0
-512 383 0
-513 514 519 521 523 0
-513 514 -519 -521 523 0
513 -523 0
513 -519 521 0
513 -514 0
513 519 -521 0
514 515 -517 0
514 -515 517 0
-514 -515 -517 0
-514 515 517 0
515 166 -516 0
515 -166 516 0
-515 -166 -516 0
-515 166 516 0
516 -159 164 0
516 159 -164 0
-516 159 164 0
-516 -159 -164 0
517 389 -518 0
517 -389 518 0
-517 -389 -518 0
-517 389 518 0
518 386 -387 0
-518 -386 0
-518 387 0
519 174 -520 0
519 -174 520 0
-519 -174 -520 0
-519 174 520 0
520 -167 172 0
520 167 -172 0
-520 167 172 0
-520 -167 -172 0
521 393 -522 0
521 -393 522 0
-521 -393 -522 0
-521 393 522 0
522 390 -391 0
-522 -390 0
-522 391 0
-523 524 529 531 533 0
-523 524 -529 -531 533 0
523 -533 0
523 -529 531 0
523 -524 0
523 529 -531 0
524 525 -527 0
524 -525 527 0
-524 -525 -527 0
-524 525 527 0
525 182 -526 0
525 -182 526 0
-525 -182 -526 0
-525 182 526 0
526 -175 180 0
526 175 -180 0
-526 175 180 0
-526 -175 -180 0
527 397 -528 0
527 -397 528 0
-527 -397 -528 0
-527 397 528 0
528 394 -395 0
-528 -394 0
-528 395 0
529 190 -530 0
529 -190 530 0
-529 -190 -530 0
-529 190 530 0
530 -183 188 0
530 183 -188 0
-530 183 188 0
-530 -183 -188 0
531 401 -532 0
531 -401 532 0
-531 -401 -532 0
-531 401 532 0
532 398 -399 0
-532 -398 0
-532 399 0
-533 534 539 541 543 0
-533 534 -539 -541 543 0
533 -543 0
533 -539 541 0
533 -534 0
533 539 -541 0
534 535 -537 0
534 -535 537 0
-534 -535 -537 0
-534 535 537 0
535 198 -536 0
535 -198 536 0
-535 -198 -536 0
-535 198 536 0
536 -191 196 0
536 191 -196 0
-536 191 196 0
-536 -191 -196 0
537 405 -538 0
537 -405 538 0
-537 -405 -538 0
-537 405 538 0
538 402 -403 0
-538 -402 0
-538 403 0
539 206 -540 0
539 -206 540 0
-539 -206 -540 0
-539 206 540 0
540 -199 204 0
540 199 -204 0
-540 199 204 0
-540 -199 -204 0
541 409 -542 0
541 -409 542 0
-541 -409 -542 0
-541 409 542 0
542 406 -407 0
-542 -406 0
-542 407 0
-543 544 549 551 553 0
-543 544 -549 -551 553 0
543 -553 0
543 -549 551 0
543 -544 0
543 549 -551 0
544 545 -547 0
544 -545 547 0
-544 -545 -547 0
-544 545 547 0
545 214 -546 0
545 -214 546 0
-545 -214 -546 0
-545 214 546 0
546 -207 212 0
546 207 -212 0
-546 207 212 0
-546 -207 -212 0
547 413 -548 0
547 -413 548 0
-547 -413 -548 0
-547 413 548 0
548 410 -411 0
-548 -410 0
-548 411 0
549 222 -550 0
549 -222 550 0
-549 -222 -550 0
-549 222 550 0
550 -215 220 0
550 215 -220 0
-550 215 220 0
-550 -215 -220 0
551 417 -552 0
551 -417 552 0
-551 -417 -552 0
-551 417 552 0
552 414 -415 0
-552 -414 0
-552 415 0
-553 554 559 561 563 0
-553 554 -559 -561 563 0
553 -563 0
553 -559 561 0
553 -554 0
553 559 -561 0
554 555 -557 0
554 -555 557 0
-554 -555 -557 0
-554 555 557 0
555 230 -556 0
555 -230 556 0
-555 -230 -556 0
-555 230 556 0
556 -223 228 0
556 223 -228 0
-556 223 228 0
-556 -223 -228 0
557 421 -558 0
557 -421 558 0
-557 -421 -558 0
-557 421 558 0
558 418 -419 0
-558 -418 0
-558 419 0
559 238 -560 0
559 -238 560 0
-559 -238 -560 0
-559 238 560 0
560 -231 236 0
560 231 -236 0
-560 231 236 0
-560 -231 -236 0
561 425 -562 0
561 -425 562 0
-561 -425 -562 0
-561 425 562 0
562 422 -423 0
-562 -422 0
-562 423 0
-563 564 566 -568 -570 0
-563 -564 -566 -568 -570 0
-563 564 566 568 570 0
-563 -564 -566 568 570 0
563 564 -566 0
563 -564 566 0
563 568 -570 0
563 -568 570 0
564 246 -565 0
564 -246 565 0
-564 -246 -565 0
-564 246 565 0
565 -239 244 0
565 239 -244 0
-565 239 244 0
-565 -239 -244 0
566 429 -567 0
566 -429 567 0
-566 -429 -567 0
-566 429 567 0
567 426 -427 0
-567 -426 0
-567 427 0
568 254 -569 0
568 -254 569 0
-568 -254 -569 0
-568 254 569 0
569 -247 252 0
569 247 -252 0
-569 247 252 0
-569 -247 -252 0
570 433 -571 0
570 -433 571 0
-570 -433 -571 0
-570 433 571 0
571 430 -431 0
-571 -430 0
-571 431 0
-636 0
2 0

